language ESSENCE' 1.0

letting C_FunctionND be
        [[0, 0, 0, 0, 0, 0, 0, 0, 0, 0, 0, 0, 0, 0, 0, 0, 0, 0, 0, 0, 0, 0; int(0..21)],
         [1, 0, 0, 0, 0, 0, 0, 0, 0, 0, 0, 0, 0, 0, 0, 0, 0, 0, 0, 0, 0, 0; int(0..21)],
         [1, 0, 0, 0, 0, 0, 0, 0, 0, 0, 0, 0, 0, 0, 0, 0, 0, 0, 0, 0, 0, 0; int(0..21)],
         [1, 0, 0, 0, 0, 0, 0, 0, 0, 0, 0, 0, 0, 0, 0, 0, 0, 0, 0, 0, 0, 0; int(0..21)],
         [1, 0, 0, 0, 0, 0, 0, 0, 0, 0, 0, 0, 0, 0, 0, 0, 0, 0, 0, 0, 0, 0; int(0..21)],
         [1, 0, 0, 0, 0, 0, 0, 0, 0, 0, 0, 0, 0, 0, 0, 0, 0, 0, 0, 0, 0, 0; int(0..21)],
         [1, 0, 0, 0, 0, 0, 0, 0, 0, 0, 0, 0, 0, 0, 0, 0, 0, 0, 0, 0, 0, 0; int(0..21)],
         [1, 0, 0, 0, 0, 0, 0, 0, 0, 0, 0, 0, 0, 0, 0, 0, 0, 0, 0, 0, 0, 0; int(0..21)],
         [1, 0, 0, 0, 0, 0, 0, 0, 0, 0, 0, 0, 0, 0, 0, 0, 0, 0, 0, 0, 0, 0; int(0..21)],
         [0, 1, 1, 0, 1, 0, 1, 0, 0, 0, 0, 0, 0, 0, 0, 0, 0, 0, 0, 0, 0, 0; int(0..21)],
         [0, 1, 0, 1, 0, 0, 0, 1, 1, 0, 0, 0, 0, 0, 0, 0, 0, 0, 0, 0, 0, 0; int(0..21)],
         [0, 1, 0, 0, 0, 1, 0, 0, 0, 0, 0, 0, 0, 0, 0, 0, 0, 0, 0, 0, 0, 0; int(0..21)],
         [0, 0, 1, 1, 0, 0, 0, 0, 0, 0, 0, 0, 0, 0, 0, 0, 0, 0, 0, 0, 0, 0; int(0..21)],
         [0, 0, 1, 0, 0, 1, 0, 0, 1, 0, 0, 0, 0, 0, 0, 0, 0, 0, 0, 0, 0, 0; int(0..21)],
         [0, 0, 1, 0, 0, 0, 0, 1, 0, 0, 0, 0, 0, 0, 0, 0, 0, 0, 0, 0, 0, 0; int(0..21)],
         [0, 0, 0, 1, 1, 1, 0, 0, 0, 0, 0, 0, 0, 0, 0, 0, 0, 0, 0, 0, 0, 0; int(0..21)],
         [0, 0, 0, 1, 0, 0, 1, 0, 0, 0, 0, 0, 0, 0, 0, 0, 0, 0, 0, 0, 0, 0; int(0..21)],
         [0, 0, 0, 0, 1, 0, 0, 1, 0, 0, 0, 0, 0, 0, 0, 0, 0, 0, 0, 0, 0, 0; int(0..21)],
         [0, 0, 0, 0, 1, 0, 0, 0, 1, 0, 0, 0, 0, 0, 0, 0, 0, 0, 0, 0, 0, 0; int(0..21)],
         [0, 0, 0, 0, 0, 1, 1, 1, 0, 0, 0, 0, 0, 0, 0, 0, 0, 0, 0, 0, 0, 0; int(0..21)],
         [0, 0, 0, 0, 0, 0, 1, 0, 1, 0, 0, 0, 0, 0, 0, 0, 0, 0, 0, 0, 0, 0; int(0..21)],
         [0, 0, 0, 0, 0, 0, 0, 0, 0, 1, 1, 1, 1, 1, 1, 1, 1, 1, 1, 1, 1, 0; int(0..21)];
             int(0..21)]
$ Visualisation for C_FunctionND
$ 0 0 0 0 0 0 0 0 0 0 0 0 0 0 0 0 0 0 0 0 0 0
$ 1 0 0 0 0 0 0 0 0 0 0 0 0 0 0 0 0 0 0 0 0 0
$ 1 0 0 0 0 0 0 0 0 0 0 0 0 0 0 0 0 0 0 0 0 0
$ 1 0 0 0 0 0 0 0 0 0 0 0 0 0 0 0 0 0 0 0 0 0
$ 1 0 0 0 0 0 0 0 0 0 0 0 0 0 0 0 0 0 0 0 0 0
$ 1 0 0 0 0 0 0 0 0 0 0 0 0 0 0 0 0 0 0 0 0 0
$ 1 0 0 0 0 0 0 0 0 0 0 0 0 0 0 0 0 0 0 0 0 0
$ 1 0 0 0 0 0 0 0 0 0 0 0 0 0 0 0 0 0 0 0 0 0
$ 1 0 0 0 0 0 0 0 0 0 0 0 0 0 0 0 0 0 0 0 0 0
$ 0 1 1 0 1 0 1 0 0 0 0 0 0 0 0 0 0 0 0 0 0 0
$ 0 1 0 1 0 0 0 1 1 0 0 0 0 0 0 0 0 0 0 0 0 0
$ 0 1 0 0 0 1 0 0 0 0 0 0 0 0 0 0 0 0 0 0 0 0
$ 0 0 1 1 0 0 0 0 0 0 0 0 0 0 0 0 0 0 0 0 0 0
$ 0 0 1 0 0 1 0 0 1 0 0 0 0 0 0 0 0 0 0 0 0 0
$ 0 0 1 0 0 0 0 1 0 0 0 0 0 0 0 0 0 0 0 0 0 0
$ 0 0 0 1 1 1 0 0 0 0 0 0 0 0 0 0 0 0 0 0 0 0
$ 0 0 0 1 0 0 1 0 0 0 0 0 0 0 0 0 0 0 0 0 0 0
$ 0 0 0 0 1 0 0 1 0 0 0 0 0 0 0 0 0 0 0 0 0 0
$ 0 0 0 0 1 0 0 0 1 0 0 0 0 0 0 0 0 0 0 0 0 0
$ 0 0 0 0 0 1 1 1 0 0 0 0 0 0 0 0 0 0 0 0 0 0
$ 0 0 0 0 0 0 1 0 1 0 0 0 0 0 0 0 0 0 0 0 0 0
$ 0 0 0 0 0 0 0 0 0 1 1 1 1 1 1 1 1 1 1 1 1 0

letting J_FunctionND be
        [[0, 1, 2, 3, 4, 5, 6, 7, 8, 9, 10, 11, 12, 13, 14, 15, 16, 17, 18, 19, 20, 21; int(0..21)],
         [1, 1, 9, 10, 9, 11, 9, 10, 10, 9, 10, 11, 21, 21, 21, 21, 21, 21, 21, 21, 21, 21; int(0..21)],
         [2, 9, 2, 12, 9, 13, 9, 14, 13, 9, 21, 21, 12, 13, 14, 21, 21, 21, 21, 21, 21, 21; int(0..21)],
         [3, 10, 12, 3, 15, 15, 16, 10, 10, 21, 10, 21, 12, 21, 21, 15, 16, 21, 21, 21, 21, 21; int(0..21)],
         [4, 9, 9, 15, 4, 15, 9, 17, 18, 9, 21, 21, 21, 21, 21, 15, 21, 17, 18, 21, 21, 21; int(0..21)],
         [5, 11, 13, 15, 15, 5, 19, 19, 13, 21, 21, 11, 21, 13, 21, 15, 21, 21, 21, 19, 21, 21; int(0..21)],
         [6, 9, 9, 16, 9, 19, 6, 19, 20, 9, 21, 21, 21, 21, 21, 21, 16, 21, 21, 19, 20, 21; int(0..21)],
         [7, 10, 14, 10, 17, 19, 19, 7, 10, 21, 10, 21, 21, 21, 14, 21, 21, 17, 21, 19, 21, 21; int(0..21)],
         [8, 10, 13, 10, 18, 13, 20, 10, 8, 21, 10, 21, 21, 13, 21, 21, 21, 21, 18, 21, 20, 21; int(0..21)],
         [9, 9, 9, 21, 9, 21, 9, 21, 21, 9, 21, 21, 21, 21, 21, 21, 21, 21, 21, 21, 21, 21; int(0..21)],
         [10, 10, 21, 10, 21, 21, 21, 10, 10, 21, 10, 21, 21, 21, 21, 21, 21, 21, 21, 21, 21, 21; int(0..21)],
         [11, 11, 21, 21, 21, 11, 21, 21, 21, 21, 21, 11, 21, 21, 21, 21, 21, 21, 21, 21, 21, 21; int(0..21)],
         [12, 21, 12, 12, 21, 21, 21, 21, 21, 21, 21, 21, 12, 21, 21, 21, 21, 21, 21, 21, 21, 21; int(0..21)],
         [13, 21, 13, 21, 21, 13, 21, 21, 13, 21, 21, 21, 21, 13, 21, 21, 21, 21, 21, 21, 21, 21; int(0..21)],
         [14, 21, 14, 21, 21, 21, 21, 14, 21, 21, 21, 21, 21, 21, 14, 21, 21, 21, 21, 21, 21, 21; int(0..21)],
         [15, 21, 21, 15, 15, 15, 21, 21, 21, 21, 21, 21, 21, 21, 21, 15, 21, 21, 21, 21, 21, 21; int(0..21)],
         [16, 21, 21, 16, 21, 21, 16, 21, 21, 21, 21, 21, 21, 21, 21, 21, 16, 21, 21, 21, 21, 21; int(0..21)],
         [17, 21, 21, 21, 17, 21, 21, 17, 21, 21, 21, 21, 21, 21, 21, 21, 21, 17, 21, 21, 21, 21; int(0..21)],
         [18, 21, 21, 21, 18, 21, 21, 21, 18, 21, 21, 21, 21, 21, 21, 21, 21, 21, 18, 21, 21, 21; int(0..21)],
         [19, 21, 21, 21, 21, 19, 19, 19, 21, 21, 21, 21, 21, 21, 21, 21, 21, 21, 21, 19, 21, 21; int(0..21)],
         [20, 21, 21, 21, 21, 21, 20, 21, 20, 21, 21, 21, 21, 21, 21, 21, 21, 21, 21, 21, 20, 21; int(0..21)],
         [21, 21, 21, 21, 21, 21, 21, 21, 21, 21, 21, 21, 21, 21, 21, 21, 21, 21, 21, 21, 21, 21; int(0..21)];
             int(0..21)]
$ Visualisation for J_FunctionND
$  0  1  2  3  4  5  6  7  8  9 10 11 12 13 14 15 16 17 18 19 20 21
$  1  1  9 10  9 11  9 10 10  9 10 11 21 21 21 21 21 21 21 21 21 21
$  2  9  2 12  9 13  9 14 13  9 21 21 12 13 14 21 21 21 21 21 21 21
$  3 10 12  3 15 15 16 10 10 21 10 21 12 21 21 15 16 21 21 21 21 21
$  4  9  9 15  4 15  9 17 18  9 21 21 21 21 21 15 21 17 18 21 21 21
$  5 11 13 15 15  5 19 19 13 21 21 11 21 13 21 15 21 21 21 19 21 21
$  6  9  9 16  9 19  6 19 20  9 21 21 21 21 21 21 16 21 21 19 20 21
$  7 10 14 10 17 19 19  7 10 21 10 21 21 21 14 21 21 17 21 19 21 21
$  8 10 13 10 18 13 20 10  8 21 10 21 21 13 21 21 21 21 18 21 20 21
$  9  9  9 21  9 21  9 21 21  9 21 21 21 21 21 21 21 21 21 21 21 21
$ 10 10 21 10 21 21 21 10 10 21 10 21 21 21 21 21 21 21 21 21 21 21
$ 11 11 21 21 21 11 21 21 21 21 21 11 21 21 21 21 21 21 21 21 21 21
$ 12 21 12 12 21 21 21 21 21 21 21 21 12 21 21 21 21 21 21 21 21 21
$ 13 21 13 21 21 13 21 21 13 21 21 21 21 13 21 21 21 21 21 21 21 21
$ 14 21 14 21 21 21 21 14 21 21 21 21 21 21 14 21 21 21 21 21 21 21
$ 15 21 21 15 15 15 21 21 21 21 21 21 21 21 21 15 21 21 21 21 21 21
$ 16 21 21 16 21 21 16 21 21 21 21 21 21 21 21 21 16 21 21 21 21 21
$ 17 21 21 21 17 21 21 17 21 21 21 21 21 21 21 21 21 17 21 21 21 21
$ 18 21 21 21 18 21 21 21 18 21 21 21 21 21 21 21 21 21 18 21 21 21
$ 19 21 21 21 21 19 19 19 21 21 21 21 21 21 21 21 21 21 21 19 21 21
$ 20 21 21 21 21 21 20 21 20 21 21 21 21 21 21 21 21 21 21 21 20 21
$ 21 21 21 21 21 21 21 21 21 21 21 21 21 21 21 21 21 21 21 21 21 21

letting M_FunctionND be
        [[0, 0, 0, 0, 0, 0, 0, 0, 0, 0, 0, 0, 0, 0, 0, 0, 0, 0, 0, 0, 0, 0; int(0..21)],
         [0, 1, 0, 0, 0, 0, 0, 0, 0, 1, 1, 1, 0, 0, 0, 0, 0, 0, 0, 0, 0, 1; int(0..21)],
         [0, 0, 2, 0, 0, 0, 0, 0, 0, 2, 0, 0, 2, 2, 2, 0, 0, 0, 0, 0, 0, 2; int(0..21)],
         [0, 0, 0, 3, 0, 0, 0, 0, 0, 0, 3, 0, 3, 0, 0, 3, 3, 0, 0, 0, 0, 3; int(0..21)],
         [0, 0, 0, 0, 4, 0, 0, 0, 0, 4, 0, 0, 0, 0, 0, 4, 0, 4, 4, 0, 0, 4; int(0..21)],
         [0, 0, 0, 0, 0, 5, 0, 0, 0, 0, 0, 5, 0, 5, 0, 5, 0, 0, 0, 5, 0, 5; int(0..21)],
         [0, 0, 0, 0, 0, 0, 6, 0, 0, 6, 0, 0, 0, 0, 0, 0, 6, 0, 0, 6, 6, 6; int(0..21)],
         [0, 0, 0, 0, 0, 0, 0, 7, 0, 0, 7, 0, 0, 0, 7, 0, 0, 7, 0, 7, 0, 7; int(0..21)],
         [0, 0, 0, 0, 0, 0, 0, 0, 8, 0, 8, 0, 0, 8, 0, 0, 0, 0, 8, 0, 8, 8; int(0..21)],
         [0, 1, 2, 0, 4, 0, 6, 0, 0, 9, 1, 1, 2, 2, 2, 4, 6, 4, 4, 6, 6, 9; int(0..21)],
         [0, 1, 0, 3, 0, 0, 0, 7, 8, 1, 10, 1, 3, 8, 7, 3, 3, 7, 8, 7, 8, 10; int(0..21)],
         [0, 1, 0, 0, 0, 5, 0, 0, 0, 1, 1, 11, 0, 5, 0, 5, 0, 0, 0, 5, 0, 11; int(0..21)],
         [0, 0, 2, 3, 0, 0, 0, 0, 0, 2, 3, 0, 12, 2, 2, 3, 3, 0, 0, 0, 0, 12; int(0..21)],
         [0, 0, 2, 0, 0, 5, 0, 0, 8, 2, 8, 5, 2, 13, 2, 5, 0, 0, 8, 5, 8, 13; int(0..21)],
         [0, 0, 2, 0, 0, 0, 0, 7, 0, 2, 7, 0, 2, 2, 14, 0, 0, 7, 0, 7, 0, 14; int(0..21)],
         [0, 0, 0, 3, 4, 5, 0, 0, 0, 4, 3, 5, 3, 5, 0, 15, 3, 4, 4, 5, 0, 15; int(0..21)],
         [0, 0, 0, 3, 0, 0, 6, 0, 0, 6, 3, 0, 3, 0, 0, 3, 16, 0, 0, 6, 6, 16; int(0..21)],
         [0, 0, 0, 0, 4, 0, 0, 7, 0, 4, 7, 0, 0, 0, 7, 4, 0, 17, 4, 7, 0, 17; int(0..21)],
         [0, 0, 0, 0, 4, 0, 0, 0, 8, 4, 8, 0, 0, 8, 0, 4, 0, 4, 18, 0, 8, 18; int(0..21)],
         [0, 0, 0, 0, 0, 5, 6, 7, 0, 6, 7, 5, 0, 5, 7, 5, 6, 7, 0, 19, 6, 19; int(0..21)],
         [0, 0, 0, 0, 0, 0, 6, 0, 8, 6, 8, 0, 0, 8, 0, 0, 6, 0, 8, 6, 20, 20; int(0..21)],
         [0, 1, 2, 3, 4, 5, 6, 7, 8, 9, 10, 11, 12, 13, 14, 15, 16, 17, 18, 19, 20, 21; int(0..21)];
             int(0..21)]
$ Visualisation for M_FunctionND
$  0  0  0  0  0  0  0  0  0  0  0  0  0  0  0  0  0  0  0  0  0  0
$  0  1  0  0  0  0  0  0  0  1  1  1  0  0  0  0  0  0  0  0  0  1
$  0  0  2  0  0  0  0  0  0  2  0  0  2  2  2  0  0  0  0  0  0  2
$  0  0  0  3  0  0  0  0  0  0  3  0  3  0  0  3  3  0  0  0  0  3
$  0  0  0  0  4  0  0  0  0  4  0  0  0  0  0  4  0  4  4  0  0  4
$  0  0  0  0  0  5  0  0  0  0  0  5  0  5  0  5  0  0  0  5  0  5
$  0  0  0  0  0  0  6  0  0  6  0  0  0  0  0  0  6  0  0  6  6  6
$  0  0  0  0  0  0  0  7  0  0  7  0  0  0  7  0  0  7  0  7  0  7
$  0  0  0  0  0  0  0  0  8  0  8  0  0  8  0  0  0  0  8  0  8  8
$  0  1  2  0  4  0  6  0  0  9  1  1  2  2  2  4  6  4  4  6  6  9
$  0  1  0  3  0  0  0  7  8  1 10  1  3  8  7  3  3  7  8  7  8 10
$  0  1  0  0  0  5  0  0  0  1  1 11  0  5  0  5  0  0  0  5  0 11
$  0  0  2  3  0  0  0  0  0  2  3  0 12  2  2  3  3  0  0  0  0 12
$  0  0  2  0  0  5  0  0  8  2  8  5  2 13  2  5  0  0  8  5  8 13
$  0  0  2  0  0  0  0  7  0  2  7  0  2  2 14  0  0  7  0  7  0 14
$  0  0  0  3  4  5  0  0  0  4  3  5  3  5  0 15  3  4  4  5  0 15
$  0  0  0  3  0  0  6  0  0  6  3  0  3  0  0  3 16  0  0  6  6 16
$  0  0  0  0  4  0  0  7  0  4  7  0  0  0  7  4  0 17  4  7  0 17
$  0  0  0  0  4  0  0  0  8  4  8  0  0  8  0  4  0  4 18  0  8 18
$  0  0  0  0  0  5  6  7  0  6  7  5  0  5  7  5  6  7  0 19  6 19
$  0  0  0  0  0  0  6  0  8  6  8  0  0  8  0  0  6  0  8  6 20 20
$  0  1  2  3  4  5  6  7  8  9 10 11 12 13 14 15 16 17 18 19 20 21

letting R_Function1D be [0, 1, 1, 1, 1, 1, 1, 1, 1, 2, 2, 2, 2, 2, 2, 2, 2, 2, 2, 2, 2, 3; int(0..21)]
